
Log started (V11.0.0) Sun Apr 13 13:00:43 2008

Tried aggregator 1 time.
Reduced MIP has 140 rows, 4001 columns, and 8040 nonzeros.
Presolve time =    0.03 sec.
Clique table members: 100.
MIP emphasis: balance optimality and feasibility.
MIP search method: dynamic search.
Parallel mode: none, using 1 thread.
Root relaxation solution time =    0.09 sec.

        Nodes                                         Cuts/
   Node  Left     Objective  IInf  Best Integer     Best Node    ItCnt     Gap

*     0+    0                         5112.0000        7.6318      665   99.85%
*     0+    0                           18.0000        7.6318      665   57.60%
      0     0        8.0000    55       18.0000      Fract: 3      687   55.56%
*     0+    0                           13.0000        8.0000      687   38.46%
*     0+    0                           12.0000        8.0000      687   33.33%
      0     0        9.0000    44       12.0000       Cuts: 3      803   25.00%
      0     0        9.0000    46       12.0000       Cuts: 6      822   25.00%
*     0+    0                           11.0000        9.0000      822   18.18%
      0     0       10.0000    27       11.0000      Cuts: 15      857    9.09%
      0     0       10.0000    33       11.0000       Cuts: 6      868    9.09%
*     0+    0                           10.0000       10.0000      868    0.00%

Clique cuts applied:  4
Flow cuts applied:  10
Mixed integer rounding cuts applied:  11

Solution pool: 6 solutions saved.

MIP - Integer optimal solution:  Objective = 1.0000000000e+001
Solution time =    0.39 sec.  Iterations = 868  Nodes = 0


Incumbent solution
Variable Name           Solution Value
Cmax                         10.000000
X_1_37                        1.000000
X_2_16                        1.000000
X_3_1                         1.000000
X_4_4                         1.000000
X_5_20                        1.000000
X_6_5                         1.000000
X_7_4                         1.000000
X_8_37                        1.000000
X_9_28                        1.000000
X_10_32                       1.000000
X_11_24                       1.000000
X_12_23                       1.000000
X_13_6                        1.000000
X_14_33                       1.000000
X_15_34                       1.000000
X_16_3                        1.000000
X_17_39                       1.000000
X_18_34                       1.000000
X_19_39                       1.000000
X_20_40                       1.000000
X_21_32                       1.000000
X_22_14                       1.000000
X_23_33                       1.000000
X_24_8                        1.000000
X_25_31                       1.000000
X_26_39                       1.000000
X_27_12                       1.000000
X_28_19                       1.000000
X_29_11                       1.000000
X_30_2                        1.000000
X_31_28                       1.000000
X_32_34                       1.000000
X_33_7                        1.000000
X_34_17                       1.000000
X_35_12                       1.000000
X_36_39                       1.000000
X_37_30                       1.000000
X_38_27                       1.000000
X_39_10                       1.000000
X_40_35                       1.000000
X_41_10                       1.000000
X_42_34                       1.000000
X_43_23                       1.000000
X_44_3                        1.000000
X_45_27                       1.000000
X_46_2                        1.000000
X_47_20                       1.000000
X_48_21                       1.000000
X_49_4                        1.000000
X_50_35                       1.000000
X_51_9                        1.000000
X_52_5                        1.000000
X_53_14                       1.000000
X_54_23                       1.000000
X_55_10                       1.000000
X_56_34                       1.000000
X_57_40                       1.000000
X_58_30                       1.000000
X_59_22                       1.000000
X_60_6                        1.000000
X_61_18                       1.000000
X_62_22                       1.000000
X_63_24                       1.000000
X_64_15                       1.000000
X_65_33                       1.000000
X_66_12                       1.000000
X_67_14                       1.000000
X_68_25                       1.000000
X_69_33                       1.000000
X_70_22                       1.000000
X_71_37                       1.000000
X_72_33                       1.000000
X_73_29                       1.000000
X_74_36                       1.000000
X_75_32                       1.000000
X_76_21                       1.000000
X_77_26                       1.000000
X_78_6                        1.000000
X_79_38                       1.000000
X_80_38                       1.000000
X_81_9                        1.000000
X_82_29                       1.000000
X_83_35                       1.000000
X_84_2                        1.000000
X_85_10                       1.000000
X_86_40                       1.000000
X_87_31                       1.000000
X_88_21                       1.000000
X_89_13                       1.000000
X_90_20                       1.000000
X_91_7                        1.000000
X_92_31                       1.000000
X_93_13                       1.000000
X_94_14                       1.000000
X_95_8                        1.000000
X_96_30                       1.000000
X_97_24                       1.000000
X_98_27                       1.000000
X_99_37                       1.000000
X_100_30                      1.000000
All other variables in the range 1-4001 are 0.
